576,261
729,371
744,343
801,406
1184,327
996,177
532,112
463,248
326,350
254,623
321,766
436,887
606,880
653,397
415,364
385,360
652,410
709,397
778,336
795,369
644,292
148,322
267,471
591,406
749,539
829,554
425,489
918,443
1137,554
1081,202
975,257
542,-21
436,-75
518,86
892,697
1020,745
980,-6
